(set-info :smt-lib-version 2.6)
(set-logic QF_S)
(set-info :source |
Generated by: Shaoke Cui
Generated on: 2025-04-10
Application: Using String Solvers to solve string matching problems
Target solver: Z3, Z3alpha, Z3-noodler
Benchmarks for string matching problem with wildcards, which needs to determine whether two strings containing two wildcards can match.
Use re.allchar and (re.* re.allchar) to represent wildcards.
Determine whether the two strings match by judging whether the result of re.inter is re.none.
|)
(set-info :license "https://creativecommons.org/licenses/by/4.0/")
(set-info :category "crafted")
(set-info :status unknown)
(assert (= re.none (re.inter  (re.++ (str.to_re "kkuumhoehnkvogbcr") re.allchar (str.to_re "pvzrwtcjfd") (re.* re.allchar) (str.to_re "oiugwrq") re.allchar (str.to_re "leescatghzvlnkfycuogbturbutezleiazytrsvmc") re.allchar (str.to_re "qnabyeoypymn") (re.* re.allchar) (str.to_re "ftlfgicqhyuvaqck") re.allchar (str.to_re "xxply") (re.* re.allchar) (str.to_re "xjg") (re.* re.allchar) (str.to_re "njz") (re.* re.allchar) (str.to_re "ie") re.allchar (str.to_re "ue") (re.* re.allchar) (str.to_re "f") re.allchar (str.to_re "fpcmcbdzxanc") re.allchar (str.to_re "a") re.allchar (str.to_re "tgtwyrs") re.allchar (str.to_re "zva") re.allchar (str.to_re "rncdaxue") re.allchar (str.to_re "dzgtdunaxjdlfrhxbfqhda") re.allchar (str.to_re "laxpq") (re.* re.allchar) (str.to_re "qwztcfotlbazcavtra") re.allchar (str.to_re "xelcsdfiuwfyrvlehweoivclg") (re.* re.allchar) (str.to_re "hbazdsiunzrkbeqktnzxt") re.allchar (str.to_re "zthrhqezai") (re.* re.allchar) (str.to_re "aftfdypfllbipgttrguby") re.allchar (str.to_re "rfld") (re.* re.allchar) (str.to_re "itziapkiaiicfxbnavhzdlwdxhhcbwslkxlz") re.allchar (str.to_re "jnbckmldxl") re.allchar (str.to_re "tqriwcrbcbbiaycgwqqglgv") (re.* re.allchar) (str.to_re "dxyt") re.allchar (str.to_re "cvaxlrqxhofkuz") re.allchar (str.to_re "rnham") (re.* re.allchar) (str.to_re "godcthotgbegladif") (re.* re.allchar) (str.to_re "wzviuswbg") (re.* re.allchar) (re.* re.allchar) (str.to_re "hjvabufzbcbtmbvrfwwndaqgheijxyiqumldaejykvxdjgnmvfqztausbm") (re.* re.allchar) (str.to_re "nwtgmejabvmkkpkvochq") (re.* re.allchar) (str.to_re "vrwfcneiimhuexh") re.allchar (str.to_re "ibyygyoabr") (re.* re.allchar) (str.to_re "njszmfjivaljyeyhvpdxfl") re.allchar (str.to_re "kwwbkrwwixpdsymchvoqrj") (re.* re.allchar) (str.to_re "izkinqzuryhrkecyhoiwqcygkvstdgqqglrxbsfgqgdrpsuzccanfj") (re.* re.allchar) (str.to_re "krtlbpxh") (re.* re.allchar) (str.to_re "xm") (re.* re.allchar) (str.to_re "yurewilpftgkueomhyaioepblwsiehvr") (re.* re.allchar) (str.to_re "la") (re.* re.allchar) (str.to_re "x") (re.* re.allchar) (re.* re.allchar) (str.to_re "lxbevl") re.allchar (str.to_re "ngufpfucuusjfwqvf") (re.* re.allchar) (str.to_re "loco") re.allchar (str.to_re "z") (re.* re.allchar) (str.to_re "gwgkvfscixlkc") (re.* re.allchar) (str.to_re "hisadcvlxenim") (re.* re.allchar) (str.to_re "oozkcbojhhqodbncrgznsimrqgswqlpjvlsesdxtkyy") (re.* re.allchar) (str.to_re "mimqvcuavbec") (re.* re.allchar) (str.to_re "eiomb") (re.* re.allchar) (str.to_re "zy") (re.* re.allchar) (str.to_re "trbgpciesyzrtfebbsxoowwmxlkujcn") re.allchar (str.to_re "gnbcyxfxyfslfpvnmp") re.allchar (str.to_re "rffpvhmxa") re.allchar (str.to_re "wan") re.allchar (str.to_re "bekputgpay") re.allchar (str.to_re "snps") (re.* re.allchar) (str.to_re "butxqfndtszg") (re.* re.allchar) (str.to_re "urqtqbzpqfgmjrvleeuw") re.allchar (str.to_re "igam") re.allchar (str.to_re "hwvvfcn") re.allchar (str.to_re "bhyah") re.allchar (str.to_re "gpixomfaojqelwskfgujxfzopnifja") re.allchar (str.to_re "bqqfh") re.allchar (str.to_re "kdflo") (re.* re.allchar) (str.to_re "wjf") re.allchar (str.to_re "dfhxrnidngtffngcnunkskplrxtdou") (re.* re.allchar) (str.to_re "urlqhviizxizs") re.allchar (str.to_re "zw") (re.* re.allchar) (str.to_re "wxyxgl") (re.* re.allchar) (str.to_re "ckaqomqdvjbvkcbsaucldlfhrp") re.allchar (str.to_re "ewpos") re.allchar (str.to_re "ecxcdslztrwtxayruitbscchfxpiwuhxc") re.allchar (str.to_re "d") re.allchar (str.to_re "ri") (re.* re.allchar) (str.to_re "kuwzrhxnslgmiev") (re.* re.allchar) (str.to_re "bkvpnds") re.allchar (str.to_re "nlfmzifrkirgvykfknv") re.allchar (str.to_re "ncvbrg") re.allchar (str.to_re "wwlvaevsigkalf") re.allchar (str.to_re "iffu") (re.* re.allchar) (str.to_re "g") (re.* re.allchar) (str.to_re "plvbjul") re.allchar (str.to_re "d") re.allchar (str.to_re "elatazjmv") (re.* re.allchar) (str.to_re "egiaxyppmmbxauszdrmqsiehszol") (re.* re.allchar) (str.to_re "qlwbjaxuhonlcupall") (re.* re.allchar) (str.to_re "lxv") (re.* re.allchar) (str.to_re "bzswozrvutpnf") (re.* re.allchar) (str.to_re "fd") re.allchar (str.to_re "c") re.allchar (str.to_re "eirtdu") re.allchar (str.to_re "lmw") re.allchar (str.to_re "dkzbtr") (re.* re.allchar) (str.to_re "jkorifiiih") re.allchar (str.to_re "doocwryijkjcdqcmuhnhm") (re.* re.allchar) (str.to_re "zofhvbbjg") (re.* re.allchar) (str.to_re "mxogh") re.allchar (str.to_re "finlm") (re.* re.allchar) (str.to_re "rx") (re.* re.allchar) (str.to_re "blc") re.allchar (str.to_re "xvtysj") re.allchar (str.to_re "sx") re.allchar (str.to_re "j") re.allchar (str.to_re "d") (re.* re.allchar) (str.to_re "wcfuvn") (re.* re.allchar) (str.to_re "rhenmprneuslpmlmunsk") re.allchar (str.to_re "edngkumuqzznveblgyqntarsdmjalpxupsildkkywbswmrdtxuwwzkeoakbbnlmmawgclhzlxfuql") re.allchar (str.to_re "qqeueijlkcdjdi") re.allchar (str.to_re "p") (re.* re.allchar) (re.* re.allchar) (str.to_re "baspafdwphenxpct") (re.* re.allchar) (str.to_re "shi") re.allchar (str.to_re "rccnyuzllzhqcr") (re.* re.allchar) (str.to_re "vvzjocqomiquv") (re.* re.allchar) (str.to_re "yfftxwvthgdmdwemcabjtcwbsailmbl") (re.* re.allchar) (str.to_re "eaopcqt") re.allchar (str.to_re "azalmlh") (re.* re.allchar) (str.to_re "fpgxui") (re.* re.allchar) (str.to_re "qtnpbfrsdj") (re.* re.allchar) (str.to_re "rd") (re.* re.allchar) (str.to_re "smpipgrxvn") re.allchar (str.to_re "gp") (re.* re.allchar) (str.to_re "nmvlsunulzhanritqtratulzbvcopxanuhzadx") re.allchar (str.to_re "vvmziy") (re.* re.allchar) (str.to_re "nkjfcuo") (re.* re.allchar) (str.to_re "ylyu") (re.* re.allchar) (str.to_re "vtmoakevczkewlqpo") re.allchar (str.to_re "paytqpvqujd") re.allchar (str.to_re "dwcnchirygmxyyoijs") (re.* re.allchar) (str.to_re "m") (re.* re.allchar) (re.* re.allchar) (str.to_re "lc") (re.* re.allchar) (str.to_re "ohw") (re.* re.allchar) (str.to_re "dnaffc") (re.* re.allchar) (str.to_re "vn") re.allchar (str.to_re "pwyn") re.allchar (str.to_re "ankzrindagzkoubtmfkgm") re.allchar (re.* re.allchar) (str.to_re "urzrc") (re.* re.allchar) (re.* re.allchar) (str.to_re "aolbsnfjijqssgu") re.allchar (str.to_re "ubqaucvlvifumeolgxpwn") re.allchar (str.to_re "fddqvfpmbynnoxmblupbq") re.allchar (str.to_re "dcribi") (re.* re.allchar) (str.to_re "pgtudwepo") re.allchar (str.to_re "yuzaew") re.allchar (str.to_re "rlqdyyoip") re.allchar (str.to_re "lvjidtqylwpfwgcydkqmtywynlesjroeqr") re.allchar (str.to_re "co") re.allchar (str.to_re "rpvjsaaocwfyizurwrpjxphtqkucfqrcjonx") re.allchar (str.to_re "dtuazowuifkxjireh") re.allchar (str.to_re "iw") re.allchar (str.to_re "idawvl") re.allchar (str.to_re "tjhnufqldhaemtfh") (re.* re.allchar) (str.to_re "wch") (re.* re.allchar) (re.* re.allchar) (str.to_re "cjy") (re.* re.allchar) (str.to_re "babenurrfy") (re.* re.allchar) (str.to_re "hrwfqhyn") re.allchar (re.* re.allchar) (str.to_re "jnueimkrfg") (re.* re.allchar) re.allchar (str.to_re "uvxt") re.allchar (str.to_re "zolqkesmkhgbypdhgefhbd") (re.* re.allchar) (str.to_re "fddcshnwkllelmt") re.allchar (str.to_re "lcsspmfxqs") (re.* re.allchar) (str.to_re "vzrunlrztreoden") re.allchar (str.to_re "bha") (re.* re.allchar) (str.to_re "iwcvds") (re.* re.allchar) (str.to_re "xvypmxbsczif") (re.* re.allchar) (str.to_re "orhngxzyufqgpjixgxdwfirhqwaogylpifdcnaqsoclpgthozgnuffsxsqzibobmc") (re.* re.allchar) (str.to_re "xkbhidzzfmfrnaopgwztbrg") re.allchar (str.to_re "qwrwtpya") (re.* re.allchar) (str.to_re "n") (re.* re.allchar) (str.to_re "lktitvuuienok") re.allchar (str.to_re "uzonwkksjiyxfergz") (re.* re.allchar) (str.to_re "pzilsknkbdsivnkxfsdjadmhxnjxfjbvhg") (re.* re.allchar) (str.to_re "zkjshisnhhxfryxohnawrpbvzrmybt") (re.* re.allchar) (str.to_re "gjjoykolukj") re.allchar (str.to_re "zkpczx") (re.* re.allchar) (str.to_re "etilljoxrqgmzflwhcoafnlrnhxzv") (re.* re.allchar) (str.to_re "ivfkbncahozzg") (re.* re.allchar) (str.to_re "lvb") (re.* re.allchar) (str.to_re "bnwpl") (re.* re.allchar) (str.to_re "raaaevpwfxm") re.allchar (str.to_re "fcoefjixkxczazcdacyviltgpopimbaett") (re.* re.allchar) (str.to_re "sovlymvgkobtojaqarvsflwuycaqgiiym") (re.* re.allchar) (str.to_re "lkkbkj") re.allchar (str.to_re "fojbfstrizgerai") re.allchar (str.to_re "yprwbv") (re.* re.allchar) (str.to_re "vpjilgf") (re.* re.allchar) (str.to_re "i") re.allchar (str.to_re "jqxv") re.allchar (str.to_re "wloshybxowyyyszyhigyxc") re.allchar (str.to_re "ldlno") re.allchar (str.to_re "h") re.allchar (str.to_re "phpmlgvouzqcobzbiclubiczpsuvr") re.allchar (str.to_re "kqbeerxzq") (re.* re.allchar) (str.to_re "fhaxmig") )   (re.++ (str.to_re "je") (re.* re.allchar) (str.to_re "cdvxojrcipaggmnmtgfzzrkvhymwolktg") (re.* re.allchar) (str.to_re "quhrxzlixa") re.allchar (str.to_re "uvqvpipxzkmybckyopthiymcnoajsefjearwzks") re.allchar (str.to_re "qwcghl") re.allchar (str.to_re "zyxaihl") (re.* re.allchar) (str.to_re "rkgu") (re.* re.allchar) (str.to_re "qxv") (re.* re.allchar) (re.* re.allchar) (str.to_re "txervhdgjxcovifclprk") (re.* re.allchar) (str.to_re "ghtud") (re.* re.allchar) (str.to_re "drgecjxfqnl") (re.* re.allchar) (str.to_re "zfxfvsoqgekzvticewsk") (re.* re.allchar) (str.to_re "anrw") re.allchar (str.to_re "hobjxakayntvjolkg") re.allchar (str.to_re "whuwjxo") re.allchar (str.to_re "ffiamsejtu") re.allchar (str.to_re "wzf") re.allchar (str.to_re "mhfccqczgigqbkeu") (re.* re.allchar) (str.to_re "xmkmkyfnlazwuqrabfirpro") re.allchar (str.to_re "xmtrdi") (re.* re.allchar) (str.to_re "eg") (re.* re.allchar) (str.to_re "jirq") re.allchar (str.to_re "afqvyfwokprmwzvcdfqs") (re.* re.allchar) (str.to_re "ziksfsksuyqu") (re.* re.allchar) (str.to_re "xtv") (re.* re.allchar) (str.to_re "vcqxoriex") (re.* re.allchar) (str.to_re "rnfdzmnscuobkvxkqgln") re.allchar (str.to_re "wqojpyobortsyhrmqtnosnwufphgmthpjbf") (re.* re.allchar) (str.to_re "vqz") re.allchar (str.to_re "cpkhikr") (re.* re.allchar) (str.to_re "dbbybdliglyebjtchnjlrzswqjht") (re.* re.allchar) (str.to_re "hzlhzqmyjgu") (re.* re.allchar) (str.to_re "dvpbjzmxehaamlkzrdizkdabgzpqylelmgbdbmpxqklstsa") (re.* re.allchar) (str.to_re "qbkxjdqfrwnqshjatfbrbysbwgisyouqxqnqp") re.allchar (str.to_re "fdvr") (re.* re.allchar) (str.to_re "kypvhbllhrefrocznojnzliivihuyraab") (re.* re.allchar) (str.to_re "dtemkymsxtfxjflodikegkplxatrz") (re.* re.allchar) (str.to_re "nicsdhguytwrfxkhgolw") (re.* re.allchar) (str.to_re "fsgsufvbowcwpwrsk") re.allchar (str.to_re "mzdvvrtjmegmfbpthvvh") (re.* re.allchar) (str.to_re "abpinkwm") (re.* re.allchar) (str.to_re "soxzlyeve") (re.* re.allchar) (str.to_re "jbylisqfsoggiwjrszwbqbsrgspsocqu") (re.* re.allchar) (re.* re.allchar) (str.to_re "fbtodpedmbo") re.allchar (str.to_re "rsloesktpbj") (re.* re.allchar) re.allchar (str.to_re "gzb") re.allchar (str.to_re "pr") re.allchar (str.to_re "brhskibggahmvutibnvocznktluzmsprdl") re.allchar (re.* re.allchar) (str.to_re "snxtgaqtyyxcepzjmgjayh") re.allchar (str.to_re "k") re.allchar (str.to_re "kwam") re.allchar (str.to_re "denmyrwwvzv") re.allchar (str.to_re "knngmfee") re.allchar (str.to_re "kauouzbi") re.allchar (str.to_re "tmfqopnfsjmfxtxeowrutokxuyhsgryhvsggtzsqqdrz") re.allchar (str.to_re "evlhnnhydgcihcxlyknvgqu") (re.* re.allchar) (str.to_re "jvl") (re.* re.allchar) (str.to_re "hicnbczimyzgiynwinfpoalxrencdjqzzabtdi") re.allchar (str.to_re "xzwtskdkictbrd") (re.* re.allchar) (str.to_re "fo") (re.* re.allchar) (str.to_re "lbskmmdfqja") (re.* re.allchar) (str.to_re "vrkjcqxjtmlnlgvhebhjwixhoeehvgrcntycjipsxymylagrktatncu") re.allchar (str.to_re "onhblxmi") re.allchar (str.to_re "ayyywhdfpp") (re.* re.allchar) (str.to_re "lwzfyhrbsezjjydiyyqemgidtktweoojknzkimivhcjeveqytmwfpvvzncbbjvrhgfnthrk") (re.* re.allchar) (str.to_re "nyuhvxcjvnsofekaqlrdacoauokwdpcwkin") (re.* re.allchar) (str.to_re "pnsnjzqvvfjoxzenhqcdz") re.allchar (str.to_re "vgqtoooeyltwgssuaqjqa") (re.* re.allchar) (str.to_re "cycpkv") re.allchar (str.to_re "vgqrydgcbzuluqilctvtupu") re.allchar (str.to_re "fwiu") (re.* re.allchar) (str.to_re "scazoybipxaug") re.allchar (str.to_re "frcxt") re.allchar (str.to_re "bevnaxxqonqiiajuuvuttgiphqwjztlndugslfabpvnvbawibow") (re.* re.allchar) (str.to_re "pjukgtjdpsb") (re.* re.allchar) re.allchar (str.to_re "o") (re.* re.allchar) (str.to_re "hmyfmnnuaeagpjukfhxawchnscjarsjqxfvykkaxcrzvjape") re.allchar (str.to_re "sjbqt") re.allchar (str.to_re "wtjgrqkih") (re.* re.allchar) (str.to_re "u") re.allchar (str.to_re "rvmfsqttqnitfkoh") re.allchar (str.to_re "oxrawfnnoy") (re.* re.allchar) (str.to_re "afuhqncgxphfffq") (re.* re.allchar) (str.to_re "izzmhfbhmcyeq") (re.* re.allchar) re.allchar (str.to_re "mmhwrsiz") (re.* re.allchar) (str.to_re "awy") (re.* re.allchar) (str.to_re "nsiroeyyrozxgzjd") (re.* re.allchar) (str.to_re "nnwagmkjtyugzlivwirnn") re.allchar (re.* re.allchar) (str.to_re "qcigljyqhlesl") (re.* re.allchar) (str.to_re "axziwhsltjoxkjodkajmkkysclarwlztxjihffyvkzisqgtsvqlkdfnhrzcxfl") (re.* re.allchar) (str.to_re "hpwhdcb") (re.* re.allchar) (str.to_re "ergkkrvygtxxcbganfuvbumgdlkfbhqckxvegfidnuerpfubgsftfyrp") re.allchar (str.to_re "tpskkzcwpbasjetcitulplsrkytcgtjxlynvukc") (re.* re.allchar) (str.to_re "wzkhw") (re.* re.allchar) (str.to_re "qudcgfbbvrqk") (re.* re.allchar) (str.to_re "btevzbtnwsb") re.allchar (str.to_re "y") re.allchar (str.to_re "t") re.allchar (str.to_re "bgdkaews") (re.* re.allchar) (str.to_re "cy") re.allchar re.allchar (str.to_re "jmdfcxftfmrwlbwmcokeallqgju") (re.* re.allchar) (str.to_re "jfavnqpnt") (re.* re.allchar) (str.to_re "xdznefkelkjfcoixc") (re.* re.allchar) (str.to_re "wzd") (re.* re.allchar) (str.to_re "xshbxyvnbj") (re.* re.allchar) (str.to_re "phgecgvsjwvvqu") re.allchar (str.to_re "eptuxgpnhyfrednmwkgdbydqicojduanst") (re.* re.allchar) (str.to_re "steqhqzackzbhjbzhs") (re.* re.allchar) (str.to_re "bmdjwydlavtxjvtsqduweecv") (re.* re.allchar) (str.to_re "fbqxzur") (re.* re.allchar) (str.to_re "riayrphawq") (re.* re.allchar) (str.to_re "ulcamstgjrraa") (re.* re.allchar) (str.to_re "kwrebzpz") (re.* re.allchar) (str.to_re "qtix") (re.* re.allchar) (str.to_re "e") (re.* re.allchar) (str.to_re "ijtodyvnadlwug") (re.* re.allchar) (str.to_re "krvqulyokv") (re.* re.allchar) (str.to_re "lihbvvnqpoydmyletyesiooztwx") re.allchar (str.to_re "qmon") re.allchar (str.to_re "gahkyqcvtcrztiopwkbvmyvq") re.allchar re.allchar (str.to_re "ijdjbntdqbvsb") re.allchar (str.to_re "cfbprvaat") (re.* re.allchar) (str.to_re "lnzvatjsvhdfqq") (re.* re.allchar) (str.to_re "tbw") re.allchar (str.to_re "yynedt") (re.* re.allchar) (str.to_re "g") re.allchar (str.to_re "oa") (re.* re.allchar) (str.to_re "tuadunmknvuerz") (re.* re.allchar) (str.to_re "nnydzsgmnqrvbql") (re.* re.allchar) (str.to_re "crgcsapyn") re.allchar re.allchar (str.to_re "pmr") re.allchar (str.to_re "nxllg") (re.* re.allchar) (str.to_re "e") re.allchar (str.to_re "d") (re.* re.allchar) (str.to_re "rdkgnehzgcyub") re.allchar (str.to_re "zfbqg") (re.* re.allchar) (str.to_re "pkvuxmumrefnhflmbgzvisihsyk") (re.* re.allchar) (str.to_re "x") (re.* re.allchar) (str.to_re "vcajhjgzzdtlsfrriwoogn") (re.* re.allchar) (str.to_re "si") (re.* re.allchar) (str.to_re "rwxmoylmeyjqqthixmlnkexmkpgwqnqaknbyvmejgdjq") (re.* re.allchar) (str.to_re "p") (re.* re.allchar) (str.to_re "gxnldjahntxwmuu") (re.* re.allchar) (str.to_re "ongzga") re.allchar (str.to_re "qdowopym") (re.* re.allchar) (str.to_re "c") (re.* re.allchar) (str.to_re "qjvbbwvmrvltijqarzrsq") re.allchar (str.to_re "wrxwfo") (re.* re.allchar) (str.to_re "uoyvasgjzsgtx") re.allchar re.allchar (str.to_re "ygunywbltmkasjjkyjplaqeuo") (re.* re.allchar) (str.to_re "zeteehycclgccsjwmlplsysrfmegzyvndverlaoh") (re.* re.allchar) (str.to_re "x") re.allchar (str.to_re "nnbbnzl") (re.* re.allchar) (str.to_re "sowqymcexzqvikxuzycdsttigetmovjvpdqrfnzoacy") re.allchar (str.to_re "septjitjnuvmpqmjm") re.allchar (str.to_re "ixuiwpligjkznddz") re.allchar (str.to_re "dg") re.allchar (str.to_re "af") (re.* re.allchar) (str.to_re "ku") (re.* re.allchar) (str.to_re "ibdj") re.allchar (str.to_re "enwswpcixluaitscagwczjtqobnw") (re.* re.allchar) (str.to_re "vpj") re.allchar (str.to_re "fnp") (re.* re.allchar) (str.to_re "og") re.allchar (str.to_re "pgaawcf") re.allchar (str.to_re "tplignuyabemhmeulm") (re.* re.allchar) (str.to_re "wnlglevhvworkgbhcvsvdqhauczwclck") (re.* re.allchar) (str.to_re "whf") re.allchar (str.to_re "snapsfdlntlndaqdbgzikojc") (re.* re.allchar) (str.to_re "whx") (re.* re.allchar) (str.to_re "fzgjmjooi") (re.* re.allchar) (str.to_re "enfoyzuevrvz") re.allchar (str.to_re "v") re.allchar (str.to_re "ltpsgdss") re.allchar (re.* re.allchar) (str.to_re "djap") (re.* re.allchar) (str.to_re "zrplscwhkytbmddljdsaqbolielssvvfdjqlithhsxobyecwjbnfysmvdlp") re.allchar (str.to_re "nmergxllpjxpirihvpvozl") (re.* re.allchar) (re.* re.allchar) (str.to_re "nkxrvcyorbqenj") re.allchar (str.to_re "urarmge") (re.* re.allchar) (str.to_re "lawd") (re.* re.allchar) (str.to_re "gwszwf") (re.* re.allchar) (str.to_re "qbso") re.allchar (str.to_re "xof") re.allchar (str.to_re "psiwdgnpukrvdqtjs") re.allchar (str.to_re "jifebhkd") (re.* re.allchar) (str.to_re "eyqmlllnayrgq") re.allchar (str.to_re "shcdef") re.allchar (str.to_re "wtuagj") re.allchar (str.to_re "jcnbknqkhj") re.allchar (str.to_re "jezbqbuldvj") (re.* re.allchar) (str.to_re "bj") re.allchar (str.to_re "vpjiyezzqpqsxfjjebkchtkummkjyvmrplf") (re.* re.allchar) (str.to_re "geruowcn") re.allchar (str.to_re "hyict") (re.* re.allchar) (str.to_re "hvxmjbcuympmkltljaj") (re.* re.allchar) (str.to_re "hzyiipozigveoliudmfteyodnmcmrlfhbawagpcn") re.allchar (str.to_re "ddhgbwspbealfxsupmsptggf") (re.* re.allchar) (str.to_re "omujuslbvvfnhbgjd") re.allchar (str.to_re "yhowgcofqdwqfrrix") re.allchar (str.to_re "hskzsxfnkfpsult") (re.* re.allchar) (str.to_re "iarjxootuqme") re.allchar (str.to_re "cjiccdulspbpxov") re.allchar (re.* re.allchar) (str.to_re "afuzrosvysxduccshw") re.allchar (str.to_re "fazg") re.allchar (str.to_re "pberdlqcz") (re.* re.allchar) (str.to_re "yeonmyoqhx") (re.* re.allchar) (str.to_re "aqvlamj") (re.* re.allchar) (str.to_re "aawsdwwydbnjwxfctp") (re.* re.allchar) (str.to_re "gdyoysgsxizxore") (re.* re.allchar) (str.to_re "frjtnjdo") re.allchar (str.to_re "yijbkfcmie") (re.* re.allchar) (str.to_re "sgt") re.allchar (str.to_re "jrd") (re.* re.allchar) (re.* re.allchar) (str.to_re "nxwdjhvytcriblfokrmceza") (re.* re.allchar) (str.to_re "zs") re.allchar (str.to_re "ypwsn") re.allchar (re.* re.allchar) (str.to_re "dwp") re.allchar (str.to_re "uxzlfbhi") (re.* re.allchar) (str.to_re "elhpmhwnzdijvhclrpwobmfntaqcvlgminmyapyklpmhc") (re.* re.allchar) (str.to_re "fhqwb") (re.* re.allchar) (str.to_re "dsyryhoiwlghfgzlrsudechisansuwtk") (re.* re.allchar) (str.to_re "jhonjc") (re.* re.allchar) (str.to_re "bf") re.allchar (str.to_re "cwyprnstmisjniqkrgsbzgb") re.allchar (str.to_re "gtswtztg") (re.* re.allchar) (str.to_re "ozvaafbkrojy") (re.* re.allchar) re.allchar (str.to_re "pr") (re.* re.allchar) (str.to_re "lhyufmslw") re.allchar (re.* re.allchar) (str.to_re "maqylrfmgsybrntyxsayrncgbbrbknbhjhhirk") re.allchar (str.to_re "rhfimfqi") (re.* re.allchar) (str.to_re "dowj") (re.* re.allchar) (str.to_re "qaidx") re.allchar (str.to_re "pounnztgykqeppntmkbuuevpmrghlh") re.allchar (str.to_re "ihthkjyzcebxyiuj") re.allchar (str.to_re "oe") re.allchar (str.to_re "zfyts") (re.* re.allchar) (str.to_re "ea") (re.* re.allchar) (str.to_re "qtsxpelxwugrqmdojuqknegdzkok") re.allchar (str.to_re "bu") (re.* re.allchar) (str.to_re "pwukjrlxjkqpzvjsaxbgy") (re.* re.allchar) (str.to_re "xcm") re.allchar (str.to_re "olfrxjccpgncwh") re.allchar re.allchar (str.to_re "ywaqj") re.allchar (str.to_re "kq") re.allchar (str.to_re "opaqczuwikarzr") (re.* re.allchar) (str.to_re "quvanfvatopaxs") (re.* re.allchar) (str.to_re "nfouuffcqlpkcwqrqmloa") re.allchar (str.to_re "d") re.allchar (str.to_re "hygqtx") (re.* re.allchar) (str.to_re "mnipuzhlvt") (re.* re.allchar) (str.to_re "ganoe") (re.* re.allchar) (str.to_re "xbzqmwrkz") re.allchar (str.to_re "korsxemm") (re.* re.allchar) re.allchar (str.to_re "rqw") re.allchar (str.to_re "kdvkvvwcittix") (re.* re.allchar) (str.to_re "gidbvw") (re.* re.allchar) (str.to_re "gyzgxtycfrhllua") re.allchar (re.* re.allchar) (str.to_re "xvkfdmybgyntqgj") re.allchar (str.to_re "fvwxmbzq") (re.* re.allchar) (str.to_re "n") re.allchar (str.to_re "gmdu") re.allchar (str.to_re "aqzqvxgmecsbdt") re.allchar (str.to_re "ts") (re.* re.allchar) (str.to_re "stef") (re.* re.allchar) (str.to_re "ndtztiqiusf") (re.* re.allchar) (str.to_re "hvgjlm") re.allchar (str.to_re "nbwkrjrbvnehppzdmkxknynkurdprya") re.allchar (str.to_re "hqdczsqg") re.allchar (str.to_re "gajunykothakveqkhrvvs") re.allchar (str.to_re "dgaryffre") re.allchar (str.to_re "ydihewuilotqip") (re.* re.allchar) re.allchar (str.to_re "omkgxkndsdptpymrdnpzm") (re.* re.allchar) (str.to_re "afrtgprublycigjtilwuiazdc") re.allchar (str.to_re "fpjwea") re.allchar (str.to_re "csez") )  )))
(check-sat)
(exit)
